7837
8411
8795
9040
9218
9315
9402
9472
9551
9616
9664
9697
9734
9761
9794
9815
9833
9855
9871
9888
9904
9914
9914
9919
9926
9928
9935
9940
9948
9960
9977
9993
10022
10074
10083
10083
10083
10083
10083
10083
10083
10083
10083
10083
10083
10083
10083
10083
10084
10084
10085
10086
10086
10088
10088
10089
10091
10093
10096
10100
10106
10113
10113
10113
10113
10113
10113
10113
10113
10113
10113
10113
10113
10113
10113
10113
10113
10113
10113
10113
10113
10113
10113
10113
10113
10113
10113
10113
10113
10113
10113
10113
10113
10113
10113
10113
10113
10113
10113
